NAME : U159C.52187.tour
COMMENT : Cost = 0_52187
COMMENT : Found by LKH [Keld Helsgaun] Sun Sep 17 16:52:43 2017
TYPE : TOUR
DIMENSION : 159
TOUR_SECTION
1
4
153
154
148
143
142
141
139
140
37
136
134
131
128
126
125
113
112
116
117
118
92
91
90
88
95
96
97
85
84
79
76
75
74
73
71
70
69
68
67
66
65
64
63
62
61
60
59
58
57
56
55
54
53
52
51
50
49
48
47
46
45
44
43
42
41
40
34
35
33
32
31
30
29
28
27
26
25
24
23
22
21
20
19
18
17
16
15
14
13
12
11
10
9
8
7
155
156
157
158
127
129
124
130
114
115
111
110
109
108
107
106
105
104
103
102
101
100
99
98
87
86
83
82
81
80
78
72
77
89
94
93
119
120
121
122
123
132
133
135
39
38
36
138
137
145
144
146
147
149
150
151
152
6
5
2
3
159
-1
EOF
